
Gurobi 10.0.1 (linux64) logging started Sun Nov 26 15:37:28 2023

Set parameter LogFile to value "ArtificialInstance/ExperimentV2/S2T5K3/BaDo/gurobi1.txt"
Gurobi Optimizer version 10.0.1 build v10.0.1rc0 (linux64)

CPU model: AMD EPYC 7H12 64-Core Processor, instruction set [SSE2|AVX|AVX2]
Thread count: 128 physical cores, 128 logical processors, using up to 32 threads

Academic license 656792 - for non-commercial use only - registered to b.___@student.vu.nl
Optimize a model with 1260 rows, 2000 columns and 6720 nonzeros
Model fingerprint: 0xc0a6d1ef
Variable types: 0 continuous, 2000 integer (2000 binary)
Coefficient statistics:
  Matrix range     [1e+00, 1e+00]
  Objective range  [2e+00, 2e+01]
  Bounds range     [1e+00, 1e+00]
  RHS range        [1e+00, 1e+00]
Found heuristic solution: objective 566.5015793
Presolve time: 0.01s
Presolved: 1260 rows, 2000 columns, 6720 nonzeros
Variable types: 0 continuous, 2000 integer (2000 binary)

Root relaxation: objective 4.486411e+01, 920 iterations, 0.01 seconds (0.01 work units)

    Nodes    |    Current Node    |     Objective Bounds      |     Work
 Expl Unexpl |  Obj  Depth IntInf | Incumbent    BestBd   Gap | It/Node Time

     0     0   44.86411    0  234  566.50158   44.86411  92.1%     -    0s
H    0     0                     272.8292052   44.86411  83.6%     -    0s
H    0     0                     247.9935490   44.86411  81.9%     -    0s
H    0     0                      89.7282286   44.86411  50.0%     -    0s
     0     0   51.91065    0  210   89.72823   51.91065  42.1%     -    0s
H    0     0                      87.5838766   51.91065  40.7%     -    0s
H    0     0                      80.7651646   51.91065  35.7%     -    0s
H    0     0                      75.6436008   51.91065  31.4%     -    0s
H    0     0                      74.0616003   55.19447  25.5%     -    0s
H    0     0                      71.4137954   55.19447  22.7%     -    0s
     0     0   56.27281    0  428   71.41380   56.27281  21.2%     -    0s
     0     0   56.27281    0  402   71.41380   56.27281  21.2%     -    0s
H    0     0                      68.9214471   58.87552  14.6%     -    0s
H    0     0                      68.0492283   58.87552  13.5%     -    0s
     0     0   58.87552    0  354   68.04923   58.87552  13.5%     -    0s
     0     0   59.06004    0  369   68.04923   59.06004  13.2%     -    0s
     0     0   59.06056    0  370   68.04923   59.06056  13.2%     -    0s
H    0     0                      64.8681137   59.06056  8.95%     -    0s
     0     0   59.35985    0  334   64.86811   59.35985  8.49%     -    0s
     0     0   59.42947    0  337   64.86811   59.42947  8.38%     -    0s
     0     0   59.45029    0  345   64.86811   59.45029  8.35%     -    0s
     0     0   59.45119    0  345   64.86811   59.45119  8.35%     -    0s
     0     0   59.98482    0  326   64.86811   59.98482  7.53%     -    0s
     0     0   60.03553    0  351   64.86811   60.03553  7.45%     -    0s
     0     0   60.04391    0  380   64.86811   60.04391  7.44%     -    0s
     0     0   60.04391    0  380   64.86811   60.04391  7.44%     -    0s
     0     0   60.31512    0  417   64.86811   60.31512  7.02%     -    0s
     0     0   60.31512    0  234   64.86811   60.31512  7.02%     -    0s
     0     0   60.31512    0  273   64.86811   60.31512  7.02%     -    0s
     0     0   60.31512    0  402   64.86811   60.31512  7.02%     -    0s
     0     0   60.34898    0  429   64.86811   60.34898  6.97%     -    0s
     0     0   60.35114    0  420   64.86811   60.35114  6.96%     -    0s
     0     0   60.35114    0  425   64.86811   60.35114  6.96%     -    0s
     0     0   60.38588    0  407   64.86811   60.38588  6.91%     -    0s
     0     0   60.43132    0  426   64.86811   60.43132  6.84%     -    0s
     0     0   60.43132    0  428   64.86811   60.43132  6.84%     -    0s
     0     0   60.44256    0  461   64.86811   60.44256  6.82%     -    0s
     0     0   60.44256    0  446   64.86811   60.44256  6.82%     -    0s
     0     2   60.44256    0  441   64.86811   60.44256  6.82%     -    1s

Cutting planes:
  Gomory: 11
  Zero half: 55
  RLT: 15

Explored 39 nodes (12352 simplex iterations) in 1.39 seconds (0.73 work units)
Thread count was 32 (of 128 available processors)

Solution count 10: 64.8681 68.0492 68.9214 ... 247.994

Optimal solution found (tolerance 1.00e-04)
Best objective 6.486811371902e+01, best bound 6.486811371902e+01, gap 0.0000%
